# Solution for model Master Problem
# Objective value = 566.880061600582
theta[1] 0
theta[2] 3.5714285714285782e-02
theta[3] 0
theta[4] 0
theta[5] 0
theta[6] 2.8571428571428570e-01
theta[7] 0
theta[8] 0
theta[9] 0
theta[10] 0
theta[11] 0
theta[12] 0
theta[13] 0
theta[14] 0
theta[15] 0
theta[16] 0
theta[17] 0
theta[18] 0
theta[19] 0
theta[20] 0
theta[21] 0.5
theta[22] 0
theta[23] 0
theta[24] 0
theta[25] 0
theta[26] 7.1428571428571425e-02
theta[27] 0
theta[28] 0
theta[29] 0.75
theta[30] 0
theta[31] 0
theta[32] 3.5714285714285712e-02
theta[33] 0
theta[34] 8.2142857142857140e-01
theta[35] 0
theta[36] 2.1428571428571430e-01
theta[37] 3.9285714285714290e-01
theta[38] 3.9285714285714279e-01
theta[39] 0
theta[40] 0
theta[41] 0
theta[42] 4.2857142857142860e-01
theta[43] 2.1428571428571430e-01
theta[44] 1.7857142857142849e-01
theta[45] 3.5714285714285726e-02
theta[46] 0
theta[47] 0
theta[48] 0
theta[49] 0.0357142857142857
theta[50] 4.2857142857142860e-01
theta[51] 1.7857142857142858e-01
theta[52] 7.1428571428571425e-02
theta[53] 1.4285714285714290e-01
theta[54] 1.0714285714285715e-01
theta[55] 1.0714285714285721e-01
theta[56] 7.1428571428571425e-02
theta[57] 0.0714285714285714
